c Reduced graph for p28_2 generated by Cyril Grelier
p edge 39 139
v 1 450
v 2 450
v 3 410
v 4 400
v 5 400
v 6 345
v 7 345
v 8 309
v 9 309
v 10 280
v 11 280
v 12 260
v 13 260
v 14 255
v 15 255
v 16 240
v 17 235
v 18 210
v 19 210
v 20 207
v 21 205
v 22 184
v 23 180
v 24 175
v 25 175
v 26 170
v 27 170
v 28 160
v 29 160
v 30 145
v 31 125
v 32 95
v 33 95
v 34 90
v 35 90
v 36 85
v 37 80
v 38 70
v 39 60
e 1 3
e 1 8
e 1 12
e 1 18
e 1 21
e 1 22
e 1 24
e 1 26
e 1 37
e 2 9
e 2 19
e 2 25
e 2 27
e 2 29
e 3 6
e 3 12
e 3 24
e 3 26
e 3 31
e 3 36
e 3 38
e 3 39
e 4 14
e 4 20
e 4 24
e 4 27
e 4 34
e 4 37
e 4 38
e 5 15
e 5 17
e 5 25
e 5 26
e 5 28
e 5 35
e 6 10
e 6 17
e 6 22
e 6 31
e 6 36
e 6 38
e 6 39
e 7 11
e 7 23
e 8 18
e 8 20
e 8 21
e 8 22
e 8 32
e 8 37
e 8 39
e 9 19
e 9 33
e 10 12
e 10 13
e 10 16
e 10 17
e 10 22
e 10 28
e 10 32
e 10 34
e 11 13
e 11 23
e 11 29
e 11 33
e 11 35
e 12 13
e 12 16
e 12 24
e 12 26
e 12 28
e 12 32
e 12 34
e 13 16
e 13 28
e 13 29
e 13 32
e 13 33
e 13 34
e 13 35
e 14 16
e 14 18
e 14 20
e 14 24
e 14 36
e 15 19
e 15 25
e 15 28
e 15 30
e 16 18
e 16 28
e 16 32
e 16 34
e 16 36
e 17 22
e 17 26
e 17 35
e 18 21
e 18 22
e 18 36
e 18 37
e 19 30
e 20 24
e 20 32
e 20 39
e 21 22
e 21 23
e 21 30
e 21 31
e 21 37
e 22 37
e 23 30
e 23 31
e 24 26
e 25 27
e 25 28
e 25 29
e 26 35
e 27 29
e 27 34
e 27 37
e 27 38
e 28 32
e 28 34
e 29 33
e 29 35
e 30 31
e 31 36
e 31 38
e 31 39
e 32 34
e 32 39
e 33 35
e 34 37
e 34 38
e 36 38
e 36 39
e 37 38
e 38 39
